(set-logic ALL)
(declare-const data_bits_VAR String)
(assert (< 0 (str.len data_bits_VAR)))
(assert (> (str.len data_bits_VAR) 0))
(assert (< 1 (str.len data_bits_VAR)))
(assert (> (str.len data_bits_VAR) 1))
(assert (< 2 (str.len data_bits_VAR)))
(assert (> (str.len data_bits_VAR) 2))
(assert (< 3 (str.len data_bits_VAR)))
(assert (> (str.len data_bits_VAR) 3))
(assert (< 4 (str.len data_bits_VAR)))
(assert (> (str.len data_bits_VAR) 4))
(assert (< 5 (str.len data_bits_VAR)))
(assert (> (str.len data_bits_VAR) 5))
(assert (< 6 (str.len data_bits_VAR)))
(assert (> (str.len data_bits_VAR) 6))
(assert (< 7 (str.len data_bits_VAR)))
(assert (> (str.len data_bits_VAR) 7))
(assert (< 8 (str.len data_bits_VAR)))
(assert (> (str.len data_bits_VAR) 8))
(assert (< 9 (str.len data_bits_VAR)))
(assert (> (str.len data_bits_VAR) 9))
(assert (< 10 (str.len data_bits_VAR)))
(assert (> (str.len data_bits_VAR) 10))
(assert (< 11 (str.len data_bits_VAR)))
(assert (> (str.len data_bits_VAR) 11))
(assert (< 12 (str.len data_bits_VAR)))
(assert (> (str.len data_bits_VAR) 12))
(assert (< 13 (str.len data_bits_VAR)))
(assert (> (str.len data_bits_VAR) 13))
(assert (< 14 (str.len data_bits_VAR)))
(assert (> (str.len data_bits_VAR) 14))
(assert (< 15 (str.len data_bits_VAR)))
(assert (> (str.len data_bits_VAR) 15))
(assert (< 16 (str.len data_bits_VAR)))
(assert (> (str.len data_bits_VAR) 16))
(assert (< 17 (str.len data_bits_VAR)))
(assert (> (str.len data_bits_VAR) 17))
(assert (< 18 (str.len data_bits_VAR)))
(assert (> (str.len data_bits_VAR) 18))
(assert (< 19 (str.len data_bits_VAR)))
(assert (> (str.len data_bits_VAR) 19))
(assert (< 20 (str.len data_bits_VAR)))
(assert (> (str.len data_bits_VAR) 20))
(assert (< 21 (str.len data_bits_VAR)))
(assert (> (str.len data_bits_VAR) 21))
(assert (< 22 (str.len data_bits_VAR)))
(assert (> (str.len data_bits_VAR) 22))
(assert (< 23 (str.len data_bits_VAR)))
(assert (> (str.len data_bits_VAR) 23))
(assert (< 24 (str.len data_bits_VAR)))
(assert (> (str.len data_bits_VAR) 24))
(assert (< 25 (str.len data_bits_VAR)))
(assert (> (str.len data_bits_VAR) 25))
(assert (< 26 (str.len data_bits_VAR)))
(assert (> (str.len data_bits_VAR) 26))
(assert (< 27 (str.len data_bits_VAR)))
(assert (> (str.len data_bits_VAR) 27))
(assert (< 28 (str.len data_bits_VAR)))
(assert (> (str.len data_bits_VAR) 28))
(assert (< 29 (str.len data_bits_VAR)))
(assert (> (str.len data_bits_VAR) 29))
(assert (< 30 (str.len data_bits_VAR)))
(assert (> (str.len data_bits_VAR) 30))
(assert (< 31 (str.len data_bits_VAR)))
(assert (> (str.len data_bits_VAR) 31))
(assert (< 32 (str.len data_bits_VAR)))
(assert (> (str.len data_bits_VAR) 32))
(assert (< 33 (str.len data_bits_VAR)))
(assert (> (str.len data_bits_VAR) 33))
(assert (< 34 (str.len data_bits_VAR)))
(assert (> (str.len data_bits_VAR) 34))
(assert (< 35 (str.len data_bits_VAR)))
(assert (> (str.len data_bits_VAR) 35))
(assert (< 36 (str.len data_bits_VAR)))
(assert (> (str.len data_bits_VAR) 36))
(assert (< 37 (str.len data_bits_VAR)))
(assert (> (str.len data_bits_VAR) 37))
(assert (< 38 (str.len data_bits_VAR)))
(assert (> (str.len data_bits_VAR) 38))
(assert (< 39 (str.len data_bits_VAR)))
(assert (> (str.len data_bits_VAR) 39))
(assert (< 40 (str.len data_bits_VAR)))
(assert (> (str.len data_bits_VAR) 40))
(assert (< 41 (str.len data_bits_VAR)))
(assert (> (str.len data_bits_VAR) 41))
(assert (< 42 (str.len data_bits_VAR)))
(assert (> (str.len data_bits_VAR) 42))
(assert (< 43 (str.len data_bits_VAR)))
(assert (> (str.len data_bits_VAR) 43))
(assert (< 44 (str.len data_bits_VAR)))
(assert (> (str.len data_bits_VAR) 44))
(assert (< 45 (str.len data_bits_VAR)))
(assert (> (str.len data_bits_VAR) 45))
(assert (< 46 (str.len data_bits_VAR)))
(assert (> (str.len data_bits_VAR) 46))
(assert (< 47 (str.len data_bits_VAR)))
(assert (> (str.len data_bits_VAR) 47))
(assert (< 48 (str.len data_bits_VAR)))
(assert (> (str.len data_bits_VAR) 48))
(assert (< 49 (str.len data_bits_VAR)))
(assert (> (str.len data_bits_VAR) 49))
(assert (< 50 (str.len data_bits_VAR)))
(assert (> (str.len data_bits_VAR) 50))
(assert (< 51 (str.len data_bits_VAR)))
(assert (> (str.len data_bits_VAR) 51))
(assert (< 52 (str.len data_bits_VAR)))
(assert (> (str.len data_bits_VAR) 52))
(assert (< 53 (str.len data_bits_VAR)))
(assert (> (str.len data_bits_VAR) 53))
(assert (< 54 (str.len data_bits_VAR)))
(assert (> (str.len data_bits_VAR) 54))
(assert (< 55 (str.len data_bits_VAR)))
(assert (> (str.len data_bits_VAR) 55))
(assert (< 56 (str.len data_bits_VAR)))
(assert (> (str.len data_bits_VAR) 56))
(assert (< 57 (str.len data_bits_VAR)))
(assert (> (str.len data_bits_VAR) 57))
(assert (< 58 (str.len data_bits_VAR)))
(assert (> (str.len data_bits_VAR) 58))
(assert (< 59 (str.len data_bits_VAR)))
(assert (> (str.len data_bits_VAR) 59))
(assert (< 60 (str.len data_bits_VAR)))
(assert (> (str.len data_bits_VAR) 60))
(assert (< 61 (str.len data_bits_VAR)))
(assert (> (str.len data_bits_VAR) 61))
(assert (< 62 (str.len data_bits_VAR)))
(assert (> (str.len data_bits_VAR) 62))
(assert (< 63 (str.len data_bits_VAR)))
(assert (> (str.len data_bits_VAR) 63))
(assert (< 64 (str.len data_bits_VAR)))
(assert (> (str.len data_bits_VAR) 64))
(assert (< 65 (str.len data_bits_VAR)))
(assert (> (str.len data_bits_VAR) 65))
(assert (< 66 (str.len data_bits_VAR)))
(assert (> (str.len data_bits_VAR) 66))
(assert (< 67 (str.len data_bits_VAR)))
(assert (> (str.len data_bits_VAR) 67))
(assert (< 68 (str.len data_bits_VAR)))
(assert (> (str.len data_bits_VAR) 68))
(assert (< 69 (str.len data_bits_VAR)))
(assert (> (str.len data_bits_VAR) 69))
(assert (< 70 (str.len data_bits_VAR)))
(assert (> (str.len data_bits_VAR) 70))
(assert (< 71 (str.len data_bits_VAR)))
(assert (> (str.len data_bits_VAR) 71))
(assert (< 72 (str.len data_bits_VAR)))
(assert (> (str.len data_bits_VAR) 72))
(assert (< 73 (str.len data_bits_VAR)))
(assert (> (str.len data_bits_VAR) 73))
(assert (< 74 (str.len data_bits_VAR)))
(assert (> (str.len data_bits_VAR) 74))
(assert (< 75 (str.len data_bits_VAR)))
(assert (> (str.len data_bits_VAR) 75))
(assert (< 76 (str.len data_bits_VAR)))
(assert (> (str.len data_bits_VAR) 76))
(assert (< 77 (str.len data_bits_VAR)))
(assert (> (str.len data_bits_VAR) 77))
(assert (< 78 (str.len data_bits_VAR)))
(assert (> (str.len data_bits_VAR) 78))
(assert (< 79 (str.len data_bits_VAR)))
(assert (> (str.len data_bits_VAR) 79))
(assert (< 80 (str.len data_bits_VAR)))
(assert (> (str.len data_bits_VAR) 80))
(assert (< 81 (str.len data_bits_VAR)))
(assert (> (str.len data_bits_VAR) 81))
(assert (< 82 (str.len data_bits_VAR)))
(assert (> (str.len data_bits_VAR) 82))
(assert (< 83 (str.len data_bits_VAR)))
(assert (> (str.len data_bits_VAR) 83))
(assert (< 84 (str.len data_bits_VAR)))
(assert (> (str.len data_bits_VAR) 84))
(assert (< 85 (str.len data_bits_VAR)))
(assert (> (str.len data_bits_VAR) 85))
(assert (< 86 (str.len data_bits_VAR)))
(assert (> (str.len data_bits_VAR) 86))
(assert (< 87 (str.len data_bits_VAR)))
(assert (> (str.len data_bits_VAR) 87))
(assert (< 88 (str.len data_bits_VAR)))
(assert (> (str.len data_bits_VAR) 88))
(assert (< 89 (str.len data_bits_VAR)))
(assert (> (str.len data_bits_VAR) 89))
(assert (< 90 (str.len data_bits_VAR)))
(assert (> (str.len data_bits_VAR) 90))
(assert (< 91 (str.len data_bits_VAR)))
(assert (> (str.len data_bits_VAR) 91))
(assert (< 92 (str.len data_bits_VAR)))
(assert (> (str.len data_bits_VAR) 92))
(assert (< 93 (str.len data_bits_VAR)))
(assert (> (str.len data_bits_VAR) 93))
(assert (< 94 (str.len data_bits_VAR)))
(assert (> (str.len data_bits_VAR) 94))
(assert (< 95 (str.len data_bits_VAR)))
(assert (> (str.len data_bits_VAR) 95))
(assert (< 96 (str.len data_bits_VAR)))
(assert (> (str.len data_bits_VAR) 96))
(assert (< 97 (str.len data_bits_VAR)))
(assert (> (str.len data_bits_VAR) 97))
(assert (< 98 (str.len data_bits_VAR)))
(assert (> (str.len data_bits_VAR) 98))
(assert (< 99 (str.len data_bits_VAR)))
(assert (> (str.len data_bits_VAR) 99))
(assert (< 100 (str.len data_bits_VAR)))
(assert (> (str.len data_bits_VAR) 100))
(assert (< 101 (str.len data_bits_VAR)))
(assert (> (str.len data_bits_VAR) 101))
(assert (< 102 (str.len data_bits_VAR)))
(assert (> (str.len data_bits_VAR) 102))
(assert (< 103 (str.len data_bits_VAR)))
(assert (> (str.len data_bits_VAR) 103))
(assert (< 104 (str.len data_bits_VAR)))
(assert (> (str.len data_bits_VAR) 104))
(assert (< 105 (str.len data_bits_VAR)))
(assert (> (str.len data_bits_VAR) 105))
(assert (< 106 (str.len data_bits_VAR)))
(assert (> (str.len data_bits_VAR) 106))
(assert (< 107 (str.len data_bits_VAR)))
(assert (> (str.len data_bits_VAR) 107))
(assert (< 108 (str.len data_bits_VAR)))
(assert (> (str.len data_bits_VAR) 108))
(assert (< 109 (str.len data_bits_VAR)))
(assert (> (str.len data_bits_VAR) 109))
(assert (< 110 (str.len data_bits_VAR)))
(assert (> (str.len data_bits_VAR) 110))
(assert (< 111 (str.len data_bits_VAR)))
(assert (> (str.len data_bits_VAR) 111))
(assert (< 112 (str.len data_bits_VAR)))
(assert (> (str.len data_bits_VAR) 112))
(assert (< 113 (str.len data_bits_VAR)))
(assert (> (str.len data_bits_VAR) 113))
(assert (< 114 (str.len data_bits_VAR)))
(assert (> (str.len data_bits_VAR) 114))
(assert (< 115 (str.len data_bits_VAR)))
(assert (> (str.len data_bits_VAR) 115))
(assert (< 116 (str.len data_bits_VAR)))
(assert (> (str.len data_bits_VAR) 116))
(assert (< 117 (str.len data_bits_VAR)))
(assert (> (str.len data_bits_VAR) 117))
(assert (< 118 (str.len data_bits_VAR)))
(assert (> (str.len data_bits_VAR) 118))
(assert (< 119 (str.len data_bits_VAR)))
(assert (> (str.len data_bits_VAR) 119))
(assert (< 120 (str.len data_bits_VAR)))
(assert (> (str.len data_bits_VAR) 120))
(assert (< 121 (str.len data_bits_VAR)))
(assert (> (str.len data_bits_VAR) 121))
(assert (< 122 (str.len data_bits_VAR)))
(assert (> (str.len data_bits_VAR) 122))
(assert (< 123 (str.len data_bits_VAR)))
(assert (> (str.len data_bits_VAR) 123))
(assert (< 124 (str.len data_bits_VAR)))
(assert (> (str.len data_bits_VAR) 124))
(assert (< 125 (str.len data_bits_VAR)))
(assert (> (str.len data_bits_VAR) 125))
(assert (< 126 (str.len data_bits_VAR)))
(assert (> (str.len data_bits_VAR) 126))
(assert (< 127 (str.len data_bits_VAR)))
(assert (> (str.len data_bits_VAR) 127))
(assert (< 128 (str.len data_bits_VAR)))
(assert (> (str.len data_bits_VAR) 128))
(assert (< 129 (str.len data_bits_VAR)))
(assert (> (str.len data_bits_VAR) 129))
(assert (< 130 (str.len data_bits_VAR)))
(assert (> (str.len data_bits_VAR) 130))
(assert (< 131 (str.len data_bits_VAR)))
(assert (> (str.len data_bits_VAR) 131))
(assert (< 132 (str.len data_bits_VAR)))
(assert (> (str.len data_bits_VAR) 132))
(assert (< 133 (str.len data_bits_VAR)))
(assert (> (str.len data_bits_VAR) 133))
(assert (< 134 (str.len data_bits_VAR)))
(assert (> (str.len data_bits_VAR) 134))
(assert (< 135 (str.len data_bits_VAR)))
(assert (> (str.len data_bits_VAR) 135))
(assert (< 136 (str.len data_bits_VAR)))
(assert (> (str.len data_bits_VAR) 136))
(assert (< 137 (str.len data_bits_VAR)))
(assert (> (str.len data_bits_VAR) 137))
(assert (< 138 (str.len data_bits_VAR)))
(assert (> (str.len data_bits_VAR) 138))
(assert (< 139 (str.len data_bits_VAR)))
(assert (> (str.len data_bits_VAR) 139))
(assert (< 140 (str.len data_bits_VAR)))
(assert (> (str.len data_bits_VAR) 140))
(assert (< 141 (str.len data_bits_VAR)))
(assert (> (str.len data_bits_VAR) 141))
(assert (< 142 (str.len data_bits_VAR)))
(assert (> (str.len data_bits_VAR) 142))
(assert (< 143 (str.len data_bits_VAR)))
(assert (> (str.len data_bits_VAR) 143))
(assert (< 144 (str.len data_bits_VAR)))
(assert (> (str.len data_bits_VAR) 144))
(assert (< 145 (str.len data_bits_VAR)))
(assert (> (str.len data_bits_VAR) 145))
(assert (< 146 (str.len data_bits_VAR)))
(assert (> (str.len data_bits_VAR) 146))
(assert (< 147 (str.len data_bits_VAR)))
(assert (> (str.len data_bits_VAR) 147))
(assert (< 148 (str.len data_bits_VAR)))
(assert (> (str.len data_bits_VAR) 148))
(assert (< 149 (str.len data_bits_VAR)))
(assert (> (str.len data_bits_VAR) 149))
(assert (< 150 (str.len data_bits_VAR)))
(assert (> (str.len data_bits_VAR) 150))
(assert (< 151 (str.len data_bits_VAR)))
(assert (> (str.len data_bits_VAR) 151))
(assert (< 152 (str.len data_bits_VAR)))
(assert (> (str.len data_bits_VAR) 152))
(assert (< 153 (str.len data_bits_VAR)))
(assert (> (str.len data_bits_VAR) 153))
(assert (< 154 (str.len data_bits_VAR)))
(check-sat)
(get-value (data_bits_VAR))
